unsat
(error "line 2810 column 17: model is not available")
(error "line 2811 column 17: model is not available")
(error "line 2812 column 18: model is not available")
(error "line 2813 column 19: model is not available")
(error "line 2814 column 19: model is not available")
(error "line 2815 column 19: model is not available")
(error "line 2816 column 19: model is not available")
(error "line 2817 column 19: model is not available")
(error "line 2818 column 19: model is not available")
(error "line 2819 column 19: model is not available")
(error "line 2820 column 19: model is not available")
(error "line 2821 column 19: model is not available")
(error "line 2822 column 19: model is not available")
(error "line 2823 column 18: model is not available")
(error "line 2824 column 19: model is not available")
(error "line 2825 column 19: model is not available")
(error "line 2826 column 19: model is not available")
(error "line 2827 column 19: model is not available")
(error "line 2828 column 19: model is not available")
(error "line 2829 column 19: model is not available")
(error "line 2830 column 19: model is not available")
(error "line 2831 column 19: model is not available")
(error "line 2832 column 19: model is not available")
(error "line 2833 column 19: model is not available")
(error "line 2834 column 18: model is not available")
(error "line 2835 column 19: model is not available")
(error "line 2836 column 19: model is not available")
(error "line 2837 column 19: model is not available")
(error "line 2838 column 19: model is not available")
(error "line 2839 column 19: model is not available")
(error "line 2840 column 19: model is not available")
(error "line 2841 column 19: model is not available")
(error "line 2842 column 19: model is not available")
(error "line 2843 column 19: model is not available")
(error "line 2844 column 19: model is not available")
(error "line 2845 column 18: model is not available")
(error "line 2846 column 19: model is not available")
(error "line 2847 column 19: model is not available")
(error "line 2848 column 19: model is not available")
(error "line 2849 column 19: model is not available")
(error "line 2850 column 19: model is not available")
(error "line 2851 column 19: model is not available")
(error "line 2852 column 19: model is not available")
(error "line 2853 column 19: model is not available")
(error "line 2854 column 19: model is not available")
(error "line 2855 column 19: model is not available")
(error "line 2856 column 18: model is not available")
(error "line 2857 column 19: model is not available")
(error "line 2858 column 19: model is not available")
(error "line 2859 column 19: model is not available")
(error "line 2860 column 19: model is not available")
(error "line 2861 column 19: model is not available")
(error "line 2862 column 19: model is not available")
(error "line 2863 column 19: model is not available")
(error "line 2864 column 19: model is not available")
(error "line 2865 column 19: model is not available")
(error "line 2866 column 19: model is not available")
(error "line 2867 column 18: model is not available")
(error "line 2868 column 19: model is not available")
(error "line 2869 column 19: model is not available")
(error "line 2870 column 19: model is not available")
(error "line 2871 column 19: model is not available")
(error "line 2872 column 19: model is not available")
(error "line 2873 column 19: model is not available")
(error "line 2874 column 19: model is not available")
(error "line 2875 column 19: model is not available")
(error "line 2876 column 19: model is not available")
(error "line 2877 column 19: model is not available")
(error "line 2878 column 18: model is not available")
(error "line 2879 column 19: model is not available")
(error "line 2880 column 19: model is not available")
(error "line 2881 column 19: model is not available")
(error "line 2882 column 19: model is not available")
(error "line 2883 column 19: model is not available")
(error "line 2884 column 19: model is not available")
(error "line 2885 column 19: model is not available")
(error "line 2886 column 18: model is not available")
(error "line 2887 column 18: model is not available")
(error "line 2888 column 18: model is not available")
(error "line 2889 column 17: model is not available")
(error "line 2890 column 18: model is not available")
(error "line 2891 column 18: model is not available")
(error "line 2892 column 18: model is not available")
(error "line 2893 column 18: model is not available")
(error "line 2894 column 18: model is not available")
(error "line 2895 column 18: model is not available")
(error "line 2896 column 18: model is not available")
(error "line 2897 column 18: model is not available")
(error "line 2898 column 18: model is not available")
(error "line 2899 column 18: model is not available")
(error "line 2900 column 17: model is not available")
(error "line 2901 column 18: model is not available")
(error "line 2902 column 18: model is not available")
(error "line 2903 column 18: model is not available")
(error "line 2904 column 18: model is not available")
(error "line 2905 column 18: model is not available")
(error "line 2906 column 18: model is not available")
(error "line 2907 column 18: model is not available")
(error "line 2908 column 18: model is not available")
(error "line 2909 column 18: model is not available")
(error "line 2910 column 18: model is not available")
(error "line 2911 column 17: model is not available")
(error "line 2912 column 18: model is not available")
(error "line 2913 column 18: model is not available")
(error "line 2914 column 18: model is not available")
(error "line 2915 column 18: model is not available")
(error "line 2916 column 18: model is not available")
(error "line 2917 column 18: model is not available")
(error "line 2918 column 18: model is not available")
(error "line 2919 column 18: model is not available")
(error "line 2920 column 18: model is not available")
(error "line 2921 column 18: model is not available")
(error "line 2922 column 17: model is not available")
(error "line 2923 column 18: model is not available")
(error "line 2924 column 18: model is not available")
(error "line 2925 column 18: model is not available")
(error "line 2926 column 18: model is not available")
(error "line 2927 column 18: model is not available")
(error "line 2928 column 18: model is not available")
(error "line 2929 column 18: model is not available")
(error "line 2930 column 18: model is not available")
(error "line 2931 column 18: model is not available")
(error "line 2932 column 18: model is not available")
(error "line 2933 column 17: model is not available")
(error "line 2934 column 18: model is not available")
(error "line 2935 column 18: model is not available")
(error "line 2936 column 18: model is not available")
(error "line 2937 column 18: model is not available")
(error "line 2938 column 18: model is not available")
(error "line 2939 column 18: model is not available")
(error "line 2940 column 18: model is not available")
(error "line 2941 column 18: model is not available")
(error "line 2942 column 18: model is not available")
(error "line 2943 column 18: model is not available")
(error "line 2944 column 17: model is not available")
(error "line 2945 column 18: model is not available")
(error "line 2946 column 18: model is not available")
(error "line 2947 column 18: model is not available")
(error "line 2948 column 18: model is not available")
(error "line 2949 column 18: model is not available")
(error "line 2950 column 18: model is not available")
(error "line 2951 column 18: model is not available")
(error "line 2952 column 18: model is not available")
(error "line 2953 column 18: model is not available")
(error "line 2954 column 18: model is not available")
(error "line 2955 column 17: model is not available")
(error "line 2956 column 18: model is not available")
(error "line 2957 column 18: model is not available")
(error "line 2958 column 18: model is not available")
(error "line 2959 column 18: model is not available")
(error "line 2960 column 18: model is not available")
(error "line 2961 column 18: model is not available")
(error "line 2962 column 18: model is not available")
(error "line 2963 column 18: model is not available")
(error "line 2964 column 18: model is not available")
(error "line 2965 column 18: model is not available")
(error "line 2966 column 17: model is not available")
(error "line 2967 column 18: model is not available")
(error "line 2968 column 18: model is not available")
(error "line 2969 column 18: model is not available")
(error "line 2970 column 18: model is not available")
(error "line 2971 column 18: model is not available")
(error "line 2972 column 18: model is not available")
(error "line 2973 column 18: model is not available")
(error "line 2974 column 18: model is not available")
(error "line 2975 column 18: model is not available")
(error "line 2976 column 18: model is not available")
(error "line 2977 column 38: model is not available")
(error "line 2978 column 45: model is not available")
(error "line 2979 column 38: model is not available")
(error "line 2980 column 45: model is not available")
(error "line 2981 column 46: model is not available")
(error "line 2982 column 53: model is not available")
(error "line 2983 column 40: model is not available")
(error "line 2984 column 47: model is not available")
(error "line 2985 column 38: model is not available")
(error "line 2986 column 45: model is not available")
(error "line 2987 column 38: model is not available")
(error "line 2988 column 45: model is not available")
(error "line 2989 column 41: model is not available")
(error "line 2990 column 48: model is not available")
(error "line 2991 column 41: model is not available")
(error "line 2992 column 48: model is not available")
(error "line 2993 column 41: model is not available")
(error "line 2994 column 48: model is not available")
(error "line 2995 column 41: model is not available")
(error "line 2996 column 41: model is not available")
(error "line 2997 column 48: model is not available")
(error "line 2998 column 41: model is not available")
(error "line 2999 column 48: model is not available")
(error "line 3000 column 41: model is not available")
(error "line 3001 column 48: model is not available")
(error "line 3002 column 37: model is not available")
(error "line 3003 column 44: model is not available")
(error "line 3004 column 42: model is not available")
(error "line 3005 column 42: model is not available")
(error "line 3006 column 42: model is not available")
(error "line 3007 column 38: model is not available")
(error "line 3008 column 38: model is not available")
(error "line 3009 column 38: model is not available")
(error "line 3010 column 38: model is not available")
(error "line 3011 column 38: model is not available")
(error "line 3012 column 41: model is not available")
(error "line 3013 column 48: model is not available")
(error "line 3014 column 41: model is not available")
(error "line 3015 column 48: model is not available")
(error "line 3016 column 41: model is not available")
(error "line 3017 column 48: model is not available")
(error "line 3018 column 54: model is not available")
(error "line 3019 column 54: model is not available")
(error "line 3020 column 18: model is not available")
(error "line 3021 column 20: model is not available")
(error "line 3022 column 27: model is not available")
(error "line 3023 column 20: model is not available")
(error "line 3024 column 27: model is not available")
(error "line 3025 column 20: model is not available")
(error "line 3026 column 27: model is not available")
(error "line 3027 column 20: model is not available")
(error "line 3028 column 27: model is not available")
(error "line 3029 column 21: model is not available")
(error "line 3030 column 28: model is not available")
(error "line 3031 column 39: model is not available")
(error "line 3032 column 39: model is not available")
(error "line 3033 column 39: model is not available")
(error "line 3034 column 39: model is not available")
(error "line 3035 column 39: model is not available")
(error "line 3036 column 39: model is not available")
(error "line 3037 column 39: model is not available")
(error "line 3038 column 39: model is not available")
(error "line 3039 column 39: model is not available")
(error "line 3040 column 38: model is not available")
(error "line 3041 column 38: model is not available")
(error "line 3042 column 38: model is not available")
(error "line 3043 column 38: model is not available")
(error "line 3044 column 38: model is not available")
(error "line 3045 column 38: model is not available")
(error "line 3046 column 38: model is not available")
(error "line 3047 column 38: model is not available")
(error "line 3048 column 38: model is not available")
(error "line 3049 column 16: model is not available")
(error "line 3050 column 18: model is not available")
(error "line 3051 column 25: model is not available")
(error "line 3052 column 19: model is not available")
(error "line 3053 column 19: model is not available")
(error "line 3054 column 26: model is not available")
(error "line 3055 column 19: model is not available")
(error "line 3056 column 26: model is not available")
(error "line 3057 column 19: model is not available")
(error "line 3058 column 19: model is not available")
(error "line 3059 column 26: model is not available")
(error "line 3060 column 18: model is not available")
(error "line 3061 column 25: model is not available")
(error "line 3062 column 18: model is not available")
(error "line 3063 column 25: model is not available")
(error "line 3064 column 18: model is not available")
(error "line 3065 column 18: model is not available")
(error "line 3066 column 25: model is not available")
(error "line 3067 column 18: model is not available")
(error "line 3068 column 25: model is not available")
(error "line 3069 column 18: model is not available")
(error "line 3070 column 18: model is not available")
(error "line 3071 column 25: model is not available")
(error "line 3072 column 18: model is not available")
(error "line 3073 column 25: model is not available")
(error "line 3074 column 36: model is not available")
(error "line 3075 column 36: model is not available")
(error "line 3076 column 36: model is not available")
(error "line 3077 column 31: model is not available")
(error "line 3078 column 33: model is not available")
(error "line 3079 column 40: model is not available")
(error "line 3080 column 33: model is not available")
(error "line 3081 column 40: model is not available")
(error "line 3082 column 33: model is not available")
(error "line 3083 column 40: model is not available")
(error "line 3084 column 33: model is not available")
(error "line 3085 column 40: model is not available")
(error "line 3086 column 31: model is not available")
(error "line 3087 column 33: model is not available")
(error "line 3088 column 40: model is not available")
(error "line 3089 column 33: model is not available")
(error "line 3090 column 40: model is not available")
(error "line 3091 column 33: model is not available")
(error "line 3092 column 40: model is not available")
(error "line 3093 column 33: model is not available")
(error "line 3094 column 40: model is not available")
(error "line 3095 column 52: model is not available")
(error "line 3096 column 51: model is not available")
(error "line 3097 column 53: model is not available")
(error "line 3098 column 53: model is not available")
(error "line 3099 column 53: model is not available")
(error "line 3100 column 53: model is not available")
(error "line 3101 column 52: model is not available")
(error "line 3102 column 52: model is not available")
(error "line 3103 column 51: model is not available")
(error "line 3104 column 51: model is not available")
(error "line 3105 column 53: model is not available")
(error "line 3106 column 53: model is not available")
(error "line 3107 column 53: model is not available")
(error "line 3108 column 53: model is not available")
(error "line 3109 column 52: model is not available")
(error "line 3110 column 52: model is not available")
(error "line 3111 column 51: model is not available")
(error "line 3112 column 51: model is not available")
(error "line 3113 column 52: model is not available")
(error "line 3114 column 52: model is not available")
(error "line 3115 column 51: model is not available")
(error "line 3116 column 51: model is not available")
(error "line 3117 column 52: model is not available")
(error "line 3118 column 51: model is not available")
(error "line 3119 column 52: model is not available")
(error "line 3120 column 51: model is not available")
(error "line 3121 column 51: model is not available")
(error "line 3122 column 52: model is not available")
(error "line 3123 column 51: model is not available")
(error "line 3124 column 52: model is not available")
(error "line 3125 column 52: model is not available")
(error "line 3126 column 51: model is not available")
(error "line 3127 column 51: model is not available")
(error "line 3128 column 51: model is not available")
(error "line 3129 column 52: model is not available")
(error "line 3130 column 52: model is not available")
(error "line 3131 column 51: model is not available")
(error "line 3132 column 51: model is not available")
(error "line 3133 column 52: model is not available")
(error "line 3134 column 51: model is not available")
(error "line 3135 column 52: model is not available")
(error "line 3136 column 51: model is not available")
(error "line 3137 column 52: model is not available")
(error "line 3138 column 51: model is not available")
(error "line 3139 column 52: model is not available")
(error "line 3140 column 51: model is not available")
(error "line 3141 column 51: model is not available")
(error "line 3142 column 51: model is not available")
(error "line 3143 column 51: model is not available")
(error "line 3144 column 52: model is not available")
(error "line 3145 column 52: model is not available")
(error "line 3146 column 51: model is not available")
(error "line 3147 column 51: model is not available")
(error "line 3148 column 51: model is not available")
(error "line 3149 column 56: model is not available")
(error "line 3150 column 56: model is not available")
(error "line 3151 column 56: model is not available")
(error "line 3152 column 56: model is not available")
(error "line 3153 column 56: model is not available")
(error "line 3154 column 56: model is not available")
(error "line 3155 column 56: model is not available")
(error "line 3156 column 56: model is not available")
(error "line 3157 column 56: model is not available")
(error "line 3158 column 56: model is not available")
(error "line 3159 column 55: model is not available")
(error "line 3160 column 55: model is not available")
(error "line 3161 column 55: model is not available")
(error "line 3162 column 55: model is not available")
(error "line 3163 column 55: model is not available")
(error "line 3164 column 55: model is not available")
(error "line 3165 column 36: model is not available")
(error "line 3166 column 35: model is not available")
(error "line 3167 column 35: model is not available")
(error "line 3168 column 35: model is not available")
(error "line 3169 column 35: model is not available")
(error "line 3170 column 35: model is not available")
(error "line 3171 column 35: model is not available")
(error "line 3172 column 35: model is not available")
(error "line 3173 column 35: model is not available")
(error "line 3174 column 54: model is not available")
(error "line 3175 column 54: model is not available")
(error "line 3176 column 54: model is not available")
(error "line 3177 column 54: model is not available")
(error "line 3178 column 54: model is not available")
(error "line 3179 column 31: model is not available")
(error "line 3180 column 38: model is not available")
(error "line 3181 column 38: model is not available")
(error "line 3182 column 46: model is not available")
(error "line 3183 column 46: model is not available")
(error "line 3184 column 46: model is not available")
(error "line 3185 column 46: model is not available")
(error "line 3186 column 54: model is not available")
(error "line 3187 column 54: model is not available")
(error "line 3188 column 54: model is not available")
(error "line 3189 column 54: model is not available")
(error "line 3190 column 54: model is not available")
(error "line 3191 column 54: model is not available")
(error "line 3192 column 40: model is not available")
(error "line 3193 column 40: model is not available")
(error "line 3194 column 40: model is not available")
(error "line 3195 column 40: model is not available")
(error "line 3196 column 41: model is not available")
(error "line 3197 column 41: model is not available")
(error "line 3198 column 41: model is not available")
(error "line 3199 column 41: model is not available")
(error "line 3200 column 50: model is not available")
(error "line 3201 column 50: model is not available")
(error "line 3202 column 50: model is not available")
(error "line 3203 column 50: model is not available")
(error "line 3204 column 43: model is not available")
(error "line 3205 column 43: model is not available")
(error "line 3206 column 43: model is not available")
(error "line 3207 column 43: model is not available")
(error "line 3208 column 44: model is not available")
(error "line 3209 column 44: model is not available")
(error "line 3210 column 45: model is not available")
(error "line 3211 column 45: model is not available")
(error "line 3212 column 45: model is not available")
(error "line 3213 column 45: model is not available")
(error "line 3214 column 45: model is not available")
(error "line 3215 column 44: model is not available")
(error "line 3216 column 44: model is not available")
(error "line 3217 column 44: model is not available")
(error "line 3218 column 44: model is not available")
(error "line 3219 column 44: model is not available")
(error "line 3220 column 44: model is not available")
(error "line 3221 column 44: model is not available")
(error "line 3222 column 44: model is not available")
(error "line 3223 column 44: model is not available")
(error "line 3224 column 44: model is not available")
(error "line 3225 column 41: model is not available")
(error "line 3226 column 41: model is not available")
(error "line 3227 column 44: model is not available")
(error "line 3228 column 44: model is not available")
(error "line 3229 column 50: model is not available")
(error "line 3230 column 50: model is not available")
(error "line 3231 column 50: model is not available")
(error "line 3232 column 46: model is not available")
(error "line 3233 column 50: model is not available")
(error "line 3234 column 50: model is not available")
(error "line 3235 column 50: model is not available")
(error "line 3236 column 50: model is not available")
(error "line 3237 column 50: model is not available")
(error "line 3238 column 46: model is not available")
(error "line 3239 column 46: model is not available")
(error "line 3240 column 52: model is not available")
(error "line 3241 column 52: model is not available")
(error "line 3242 column 52: model is not available")
(error "line 3243 column 52: model is not available")
(error "line 3244 column 48: model is not available")
(error "line 3245 column 48: model is not available")
(error "line 3246 column 36: model is not available")
(error "line 3247 column 36: model is not available")
(error "line 3248 column 36: model is not available")
(error "line 3249 column 36: model is not available")
(error "line 3250 column 36: model is not available")
(error "line 3251 column 36: model is not available")
(error "line 3252 column 55: model is not available")
(error "line 3253 column 55: model is not available")
(error "line 3254 column 55: model is not available")
(error "line 3255 column 55: model is not available")
(error "line 3256 column 55: model is not available")
(error "line 3257 column 32: model is not available")
(error "line 3258 column 28: model is not available")
(error "line 3259 column 26: model is not available")
(error "line 3260 column 43: model is not available")
(error "line 3261 column 43: model is not available")
(error "line 3262 column 34: model is not available")
(error "line 3263 column 34: model is not available")
(error "line 3264 column 30: model is not available")
(error "line 3265 column 30: model is not available")
(error "line 3266 column 50: model is not available")
(error "line 3267 column 50: model is not available")
(error "line 3268 column 29: model is not available")
(error "line 3269 column 29: model is not available")
(error "line 3270 column 29: model is not available")
(error "line 3271 column 31: model is not available")
(error "line 3272 column 31: model is not available")
(error "line 3273 column 28: model is not available")
(error "line 3274 column 34: model is not available")
(error "line 3275 column 34: model is not available")
(error "line 3276 column 49: model is not available")
(error "line 3277 column 49: model is not available")
(error "line 3278 column 49: model is not available")
(error "line 3279 column 49: model is not available")
(error "line 3280 column 49: model is not available")
(error "line 3281 column 29: model is not available")
(error "line 3282 column 29: model is not available")
(error "line 3283 column 29: model is not available")
(error "line 3284 column 28: model is not available")
(error "line 3285 column 20: model is not available")
(error "line 3286 column 27: model is not available")
(error "line 3287 column 21: model is not available")
(error "line 3288 column 28: model is not available")
(error "line 3289 column 20: model is not available")
(error "line 3290 column 27: model is not available")
(error "line 3291 column 20: model is not available")
(error "line 3292 column 27: model is not available")
(error "line 3293 column 20: model is not available")
(error "line 3294 column 27: model is not available")
(error "line 3295 column 20: model is not available")
(error "line 3296 column 27: model is not available")
(error "line 3297 column 20: model is not available")
(error "line 3298 column 27: model is not available")
(error "line 3299 column 20: model is not available")
(error "line 3300 column 27: model is not available")
(error "line 3301 column 20: model is not available")
(error "line 3302 column 27: model is not available")
(error "line 3303 column 20: model is not available")
(error "line 3304 column 27: model is not available")
(error "line 3306 column 10: model is not available")
(:added-eqs                      1697
 :arith-bound-propagations-cheap 30
 :arith-bound-propagations-lp    110
 :arith-conflicts                1
 :arith-lower                    91
 :arith-make-feasible            26
 :arith-max-columns              137
 :arith-max-rows                 97
 :arith-propagations             30
 :arith-upper                    52
 :array-ax1                      1
 :binary-propagations            7602
 :bv-bit2core                    22634
 :bv-diseqs                      3
 :bv-dynamic-diseqs              6
 :bv->core-eq                    149
 :conflicts                      25
 :decisions                      268
 :del-clause                     1009
 :eliminated-applications        24
 :eliminated-vars                19
 :max-memory                     14.99
 :memory                         5.96
 :minimized-lits                 376
 :mk-bool-var                    20475
 :mk-clause                      10228
 :num-allocs                     17025394
 :num-checks                     1
 :propagations                   22248
 :rlimit-count                   210766
 :time                           0.06
 :total-time                     0.07)

real	0m0.071s
user	0m0.070s
sys	0m0.000s
State: RE Run_time: 0.0724942684173584